NAME : E-n76-k7.530021.tour
COMMENT : Length = 530021
COMMENT : Found by LKH [Keld Helsgaun] Sun Dec 17 21:56:46 2017
TYPE : TOUR
DIMENSION : 82
TOUR_SECTION
1
76
69
3
31
75
22
62
29
63
23
65
78
7
52
17
64
34
74
2
44
43
42
57
24
50
25
77
27
13
41
10
40
73
59
11
32
79
47
9
36
8
54
12
67
66
39
82
68
35
53
28
16
58
14
55
20
15
60
81
5
46
30
49
48
6
38
21
71
61
72
37
70
80
18
4
45
33
51
19
26
56
-1
EOF
